c CNF file generated from BLIF2CNF script.
c Original BLIF file was blif/newtag.blif
p cnf 10 35
1 -3 0
3 -1  0
-3 2 0
-2 -4 0
4 2  0
-4 2 0
 -5 0
5 -  0
-5 2 0
 -6 0
- -6 0
- -6 0
6 -    0
-6 2 0
 -7 0
- -7 0
- -7 0
7 -    0
-7 2 0
 -8 0
- -8 0
- -8 0
8 -    0
-8 2 0
 -9 0
- -9 0
- -9 0
9 -    0
-9 2 0
 -10 0
- -10 0
- -10 0
10 -    0
-10 2 0
-2 3 4 5 6 7 8 9 10  0
